19 20 3 186 195 182 8 58 63 108 183 96 146 31 180 167 155 110 88 37 127 74 198 118 11 154 62 174 197 169 28 33 179 136 125 15 149 38 121 124 168 132 163 142 151 101 112 176 4 60 27 156 193 173 160 73 137 90 99 18 46 72 48 16 0 41 172 196 70 120 106 117 178 21 194 35 133 13 32 189 89 26 191 36 68 147 56 52 43 61 153 78 80 161 119 14 170 6 7 158 166 42 84 159 85 66 51 145 44 17 122 143 162 94 181 87 164 175 190 86 92 116 25 40 187 109 93 75 131 10 113 54 77 95 134 104 138 45 49 12 148 152 69 105 64 5 98 82 24 139 97 103 135 157 53 126 128 57 171 39 9 83 76 23 55 67 71 79 102 22 192 107 129 91 47 81 150 130 114 141 50 2 1 59 185 199 65 184 111 100 30 123 165 177 188 115 144 140 29 34